Instance Name : r103
Date : 2022-07-18
Solution
Route 1 : 31 63 11 8 46 17 93 59
Route 2 : 83 45 5 96 99 6
Route 3 : 21 72 22 74 73 2 58
Route 4 : 71 65 78 34 35 81 77 28
Route 5 : 36 64 49 19 47 48 82 18
Route 6 : 26 39 23 67 55 25 54
Route 7 : 40 53 68 29 24 12
Route 8 : 92 98 14 44 38 86 16 61 85 91 100 37
Route 9 : 42 43 15 57 41 75 56 4 80
Route 10 : 94 95 97 87 13
Route 11 : 27 69 30 9 66 20 51 1
Route 12 : 50 33 3 76 79 10 90 32 70
Route 13 : 52 7 62 88 84 60 89
